200
500
400
399
398
394
393
392
390
389
388
386
385
384
379
375
375
369
367
366
364
363
363
362
362
362
358
356
355
352
351
349
349
346
344
342
342
341
341
338
336
335
335
333
328
327
327
324
316
316
315
314
314
309
308
307
305
304
301
300
298
297
297
297
297
297
295
293
290
290
290
289
287
287
287
282
281
280
280
275
274
274
273
273
268
266
263
263
263
262
259
256
254
252
252
251
248
243
239
239
238
237
232
232
230
227
223
221
218
217
215
214
213
211
210
210
208
207
205
204
196
192
188
186
185
183
183
181
181
180
179
178
178
177
175
174
174
172
169
164
161
161
157
156
155
153
152
148
147
146
145
144
142
142
141
137
135
135
134
133
132
131
129
128
128
125
124
123
117
116
114
111
110
107
107
103
103
100
96
92
91
90
89
89
89
85
80
79
78
77
72
71
71
70
68
67
63
63
58
58
55
54
